c FILE: i080-334

c SOURCE: From steinlib

c DESCRIPTION: Steinlib instance with 80 nodes and 160 edges.

p edge 80 160
e 1 17
e 1 34
e 1 45
e 1 49
e 1 50
e 1 57
e 2 43
e 2 70
e 3 23
e 3 30
e 3 56
e 3 64
e 4 8
e 4 12
e 4 20
e 4 21
e 4 52
e 5 27
e 5 28
e 5 75
e 6 13
e 6 26
e 6 44
e 7 20
e 7 22
e 7 58
e 7 67
e 8 15
e 8 44
e 9 18
e 9 25
e 9 29
e 9 48
e 10 46
e 10 57
e 10 70
e 11 22
e 11 50
e 11 63
e 11 69
e 11 70
e 11 75
e 11 79
e 12 17
e 12 49
e 12 62
e 13 48
e 13 65
e 14 26
e 14 51
e 14 63
e 15 23
e 15 42
e 15 65
e 16 21
e 16 31
e 16 50
e 16 53
e 16 56
e 16 63
e 17 26
e 17 42
e 17 61
e 17 64
e 17 73
e 18 36
e 18 68
e 18 78
e 19 62
e 19 75
e 19 76
e 20 38
e 20 40
e 20 71
e 20 72
e 21 34
e 21 54
e 21 79
e 22 33
e 23 35
e 23 53
e 23 64
e 23 69
e 23 77
e 24 25
e 24 50
e 24 54
e 25 42
e 27 37
e 27 39
e 27 68
e 28 48
e 28 52
e 28 74
e 29 58
e 29 80
e 30 75
e 31 33
e 31 52
e 31 56
e 31 59
e 31 60
e 31 77
e 32 59
e 32 65
e 33 45
e 33 47
e 33 49
e 33 76
e 33 77
e 34 52
e 34 57
e 34 71
e 35 59
e 36 71
e 36 80
e 37 68
e 39 46
e 39 77
e 39 79
e 41 44
e 41 58
e 41 64
e 42 49
e 42 70
e 42 71
e 42 80
e 43 57
e 43 68
e 43 80
e 44 46
e 44 50
e 44 59
e 44 64
e 49 65
e 49 66
e 50 55
e 50 62
e 51 68
e 53 54
e 53 58
e 53 68
e 54 58
e 56 64
e 57 74
e 58 60
e 58 77
e 60 68
e 60 74
e 61 73
e 61 74
e 61 78
e 61 80
e 63 70
e 63 75
e 63 77
e 65 71
e 69 73
e 74 76
e 75 77
